22 1
21 2
16 3
19 4
23 5
27 6
20 7
56 7
30 8
54 9
57 2
70 6
55 3
24 10
26 11
34 12
69 13
25 11
17 9
29 1
36 14
46 4
28 14
51 15
33 15
40 16
41 8
49 16
71 10
50 11
68 17
37 18
38 19
44 20
73 10
74 3
14 13
47 8
63 5
32 12
53 13
58 10
59 5
2 1
12 8
15 16
39 12
13 12
18 3
64 11
78 8
10 6
11 13
35 1
42 10
60 9
72 5
4 14
31 17
45 12
62 8
66 11
79 9
80 18
52 6
48 19
1 15
6 11
8 16
61 12
77 1
3 3
76 5
75 2
67 4
65 3
81 3
7 4
43 2
5 4
9 2
